feasible solution found by trivial heuristic after 0.0 seconds, objective value 0.000000e+00
presolving:
(round 1, fast)       5 del vars, 5001 del conss, 0 add conss, 0 chg bounds, 0 chg sides, 0 chg coeffs, 0 upgd conss, 0 impls, 1000 clqs
   (0.0s) running MILP presolver
   (0.1s) MILP presolver found nothing
(round 2, exhaustive) 5 del vars, 5001 del conss, 0 add conss, 0 chg bounds, 0 chg sides, 0 chg coeffs, 1005 upgd conss, 0 impls, 1000 clqs
   (0.1s) probing: 51/5000 (1.0%) - 0 fixings, 0 aggregations, 0 implications, 0 bound changes
   (0.1s) probing aborted: 50/50 successive totally useless probings
   (0.1s) symmetry computation started: requiring (bin +, int -, cont +), (fixed: bin -, int +, cont -)
   (0.1s) symmetry computation finished: 102 generators found (max: 1500, log10 of symmetry group size: 31.2)
(round 3, exhaustive) 5 del vars, 5001 del conss, 99 add conss, 0 chg bounds, 0 chg sides, 0 chg coeffs, 1005 upgd conss, 0 impls, 1000 clqs
presolving (4 rounds: 4 fast, 3 medium, 3 exhaustive):
 5 deleted vars, 5001 deleted constraints, 99 added constraints, 0 tightened bounds, 0 added holes, 0 changed sides, 0 changed coefficients
 0 implications, 1000 cliques
presolved problem has 5000 variables (5000 bin, 0 int, 0 impl, 0 cont) and 1104 constraints
      5 constraints of type <knapsack>
   1000 constraints of type <setppc>
     99 constraints of type <orbitope>
transformed objective value is always integral (scale: 1)
Presolving Time: 0.14
transformed 1/1 original solutions to the transformed problem space

 time | node  | left  |LP iter|LP it/n|mem/heur|mdpt |vars |cons |rows |cuts |sepa|confs|strbr|  dualbound   | primalbound  |  gap   | compl. 
p 0.2s|     1 |     0 |     0 |     - |  clique|   0 |5000 |1104 |1005 |   0 |  0 |   0 |   0 | 2.134300e+05 | 2.038000e+04 | 947.25%| unknown
  0.5s|     1 |     0 |  1400 |     - |    84M |   0 |5000 |1104 |1005 |   0 |  0 |   0 |   0 | 3.280136e+04 | 2.038000e+04 |  60.95%| unknown
r 0.5s|     1 |     0 |  1400 |     - |rounding|   0 |5000 |1104 |1005 |   0 |  0 |   0 |   0 | 3.280136e+04 | 3.251800e+04 |   0.87%| unknown
r 0.5s|     1 |     0 |  1400 |     - |shifting|   0 |5000 |1104 |1005 |   0 |  0 |   0 |   0 | 3.280136e+04 | 3.258100e+04 |   0.68%| unknown
i 0.5s|     1 |     0 |  1400 |     - |  oneopt|   0 |5000 |1104 |1005 |   0 |  0 |   0 |   0 | 3.280136e+04 | 3.276900e+04 |   0.10%| unknown
  0.7s|     1 |     0 |  1439 |     - |    85M |   0 |5000 |1104 |1010 |   5 |  1 |   0 |   0 | 3.280136e+04 | 3.276900e+04 |   0.10%| unknown
  0.7s|     1 |     0 |  1439 |     - |    85M |   0 |5000 |1104 | 895 |   5 |  1 |   0 |   0 | 3.280136e+04 | 3.276900e+04 |   0.10%| unknown
  0.7s|     1 |     0 |  1447 |     - |    85M |   0 |5000 | 989 | 899 |   9 |  2 |   0 |   0 | 3.280136e+04 | 3.276900e+04 |   0.10%| unknown
  0.8s|     1 |     0 |  1466 |     - |    86M |   0 |5000 | 989 | 904 |  14 |  3 |   0 |   0 | 3.280136e+04 | 3.276900e+04 |   0.10%| unknown
  0.8s|     1 |     0 |  1475 |     - |    87M |   0 |5000 | 989 | 909 |  19 |  4 |   0 |   0 | 3.280136e+04 | 3.276900e+04 |   0.10%| unknown
  0.9s|     1 |     0 |  1495 |     - |    87M |   0 |5000 | 989 | 914 |  24 |  5 |   0 |   0 | 3.280136e+04 | 3.276900e+04 |   0.10%| unknown
  1.0s|     1 |     0 |  1566 |     - |    87M |   0 |5000 | 989 | 918 |  28 |  6 |   0 |   0 | 3.280136e+04 | 3.276900e+04 |   0.10%| unknown
  1.0s|     1 |     0 |  1631 |     - |    89M |   0 |5000 | 989 | 923 |  33 |  7 |   0 |   0 | 3.280136e+04 | 3.276900e+04 |   0.10%| unknown
  1.1s|     1 |     0 |  1667 |     - |    89M |   0 |5000 | 989 | 928 |  38 |  8 |   0 |   0 | 3.280136e+04 | 3.276900e+04 |   0.10%| unknown
  1.2s|     1 |     0 |  1717 |     - |    89M |   0 |5000 | 989 | 932 |  42 |  9 |   0 |   0 | 3.280136e+04 | 3.276900e+04 |   0.10%| unknown
 time | node  | left  |LP iter|LP it/n|mem/heur|mdpt |vars |cons |rows |cuts |sepa|confs|strbr|  dualbound   | primalbound  |  gap   | compl. 
  1.2s|     1 |     0 |  1766 |     - |    90M |   0 |5000 | 989 | 936 |  46 | 10 |   0 |   0 | 3.280136e+04 | 3.276900e+04 |   0.10%| unknown
  1.3s|     1 |     0 |  1780 |     - |    90M |   0 |5000 | 989 | 941 |  51 | 11 |   0 |   0 | 3.280136e+04 | 3.276900e+04 |   0.10%| unknown
  1.4s|     1 |     0 |  1805 |     - |    90M |   0 |5000 | 989 | 945 |  55 | 12 |   0 |   0 | 3.280136e+04 | 3.276900e+04 |   0.10%| unknown
  1.4s|     1 |     0 |  1836 |     - |    91M |   0 |5000 | 989 | 950 |  60 | 13 |   0 |   0 | 3.280136e+04 | 3.276900e+04 |   0.10%| unknown
L 2.9s|     1 |     0 |  3113 |     - |    rens|   0 |5000 | 989 | 950 |  60 | 13 |   0 |   0 | 3.280136e+04 | 3.278500e+04 |   0.05%| unknown
(run 1, node 1) restarting after 575 global fixings of integer variables

(restart) converted 27 cuts from the global cut pool into linear constraints

presolving:
(round 1, fast)       575 del vars, 0 del conss, 0 add conss, 0 chg bounds, 0 chg sides, 0 chg coeffs, 0 upgd conss, 0 impls, 885 clqs
(round 2, medium)     575 del vars, 11 del conss, 0 add conss, 0 chg bounds, 0 chg sides, 0 chg coeffs, 0 upgd conss, 0 impls, 885 clqs
(round 3, exhaustive) 575 del vars, 12 del conss, 0 add conss, 0 chg bounds, 1 chg sides, 0 chg coeffs, 0 upgd conss, 0 impls, 885 clqs
(round 4, exhaustive) 575 del vars, 12 del conss, 0 add conss, 0 chg bounds, 1 chg sides, 0 chg coeffs, 25 upgd conss, 0 impls, 885 clqs
presolving (5 rounds: 5 fast, 4 medium, 3 exhaustive):
 575 deleted vars, 12 deleted constraints, 0 added constraints, 0 tightened bounds, 0 added holes, 1 changed sides, 0 changed coefficients
 0 implications, 885 cliques
presolved problem has 4425 variables (4425 bin, 0 int, 0 impl, 0 cont) and 1004 constraints
     28 constraints of type <knapsack>
    885 constraints of type <setppc>
      1 constraints of type <linear>
     88 constraints of type <orbitope>
      2 constraints of type <logicor>
transformed objective value is always integral (scale: 1)
Presolving Time: 0.29
transformed 100/100 original solutions to the transformed problem space

 time | node  | left  |LP iter|LP it/n|mem/heur|mdpt |vars |cons |rows |cuts |sepa|confs|strbr|  dualbound   | primalbound  |  gap   | compl. 
i 3.2s|     1 |     0 |  3113 |     - |  oneopt|   0 |4425 |1004 | 916 |   0 |  0 |   0 |   0 | 3.280136e+04 | 3.278600e+04 |   0.05%| unknown
  3.4s|     1 |     0 |  4397 |     - |   110M |   0 |4425 |1004 | 916 |   0 |  0 |   0 |   0 | 3.280136e+04 | 3.278600e+04 |   0.05%| unknown
  3.4s|     1 |     0 |  4397 |     - |   110M |   0 |4425 |1004 | 788 |   0 |  0 |   0 |   0 | 3.280136e+04 | 3.278600e+04 |   0.05%| unknown
  3.6s|     1 |     0 |  4402 |     - |   111M |   0 |4425 | 876 | 793 |   5 |  1 |   0 |   0 | 3.280136e+04 | 3.278600e+04 |   0.05%| unknown
  3.6s|     1 |     0 |  4407 |     - |   111M |   0 |4425 | 876 | 797 |   9 |  2 |   0 |   0 | 3.280136e+04 | 3.278600e+04 |   0.05%| unknown
  3.7s|     1 |     0 |  4413 |     - |   111M |   0 |4425 | 876 | 802 |  14 |  3 |   0 |   0 | 3.280136e+04 | 3.278600e+04 |   0.05%| unknown
  3.7s|     1 |     0 |  4417 |     - |   111M |   0 |4425 | 876 | 807 |  19 |  4 |   0 |   0 | 3.280136e+04 | 3.278600e+04 |   0.05%| unknown
  3.8s|     1 |     0 |  4426 |     - |   111M |   0 |4425 | 876 | 812 |  24 |  5 |   0 |   0 | 3.280136e+04 | 3.278600e+04 |   0.05%| unknown
  3.9s|     1 |     0 |  4453 |     - |   111M |   0 |4425 | 876 | 817 |  29 |  6 |   0 |   0 | 3.280136e+04 | 3.278600e+04 |   0.05%| unknown
  3.9s|     1 |     0 |  4461 |     - |   112M |   0 |4425 | 876 | 822 |  34 |  7 |   0 |   0 | 3.280136e+04 | 3.278600e+04 |   0.05%| unknown
  4.0s|     1 |     0 |  4503 |     - |   112M |   0 |4425 | 876 | 826 |  38 |  8 |   0 |   0 | 3.280136e+04 | 3.278600e+04 |   0.05%| unknown
  4.1s|     1 |     0 |  4536 |     - |   112M |   0 |4425 | 876 | 831 |  43 |  9 |   0 |   0 | 3.280136e+04 | 3.278600e+04 |   0.05%| unknown
  4.1s|     1 |     0 |  4562 |     - |   113M |   0 |4425 | 876 | 835 |  47 | 10 |   0 |   0 | 3.280136e+04 | 3.278600e+04 |   0.05%| unknown
  4.2s|     1 |     0 |  4614 |     - |   113M |   0 |4425 | 876 | 840 |  52 | 11 |   0 |   0 | 3.280136e+04 | 3.278600e+04 |   0.05%| unknown
(run 2, node 1) restarting after 640 global fixings of integer variables

(restart) converted 34 cuts from the global cut pool into linear constraints

presolving:
(round 1, fast)       640 del vars, 0 del conss, 0 add conss, 0 chg bounds, 0 chg sides, 0 chg coeffs, 0 upgd conss, 0 impls, 757 clqs
(round 2, medium)     640 del vars, 10 del conss, 0 add conss, 0 chg bounds, 0 chg sides, 0 chg coeffs, 0 upgd conss, 0 impls, 757 clqs
(round 3, exhaustive) 640 del vars, 10 del conss, 0 add conss, 0 chg bounds, 0 chg sides, 0 chg coeffs, 33 upgd conss, 0 impls, 757 clqs
presolving (4 rounds: 4 fast, 3 medium, 2 exhaustive):
 640 deleted vars, 10 deleted constraints, 0 added constraints, 0 tightened bounds, 0 added holes, 0 changed sides, 0 changed coefficients
 0 implications, 757 cliques
presolved problem has 3785 variables (3785 bin, 0 int, 0 impl, 0 cont) and 900 constraints
     61 constraints of type <knapsack>
    757 constraints of type <setppc>
      2 constraints of type <linear>
     78 constraints of type <orbitope>
      2 constraints of type <logicor>
transformed objective value is always integral (scale: 1)
Presolving Time: 0.46
transformed 100/100 original solutions to the transformed problem space

 time | node  | left  |LP iter|LP it/n|mem/heur|mdpt |vars |cons |rows |cuts |sepa|confs|strbr|  dualbound   | primalbound  |  gap   | compl. 
  6.0s|     1 |     0 |  6842 |     - |   117M |   0 |3785 | 900 | 822 |   0 |  0 |   0 |   0 | 3.280136e+04 | 3.278600e+04 |   0.05%| unknown
  6.3s|     1 |     0 |  6862 |     - |   117M |   0 |3785 | 900 | 828 |   6 |  1 |   0 |   0 | 3.280136e+04 | 3.278600e+04 |   0.05%| unknown
  6.4s|     1 |     0 |  6902 |     - |   117M |   0 |3785 | 900 | 832 |  10 |  2 |   0 |   0 | 3.280136e+04 | 3.278600e+04 |   0.05%| unknown
  6.5s|     1 |     0 |  6909 |     - |   118M |   0 |3785 | 900 | 836 |  14 |  3 |   0 |   0 | 3.280136e+04 | 3.278600e+04 |   0.05%| unknown
  6.6s|     1 |     0 |  6971 |     - |   118M |   0 |3785 | 900 | 841 |  19 |  4 |   0 |   0 | 3.280136e+04 | 3.278600e+04 |   0.05%| unknown
  6.7s|     1 |     0 |  6988 |     - |   119M |   0 |3785 | 900 | 846 |  24 |  5 |   0 |   0 | 3.280136e+04 | 3.278600e+04 |   0.05%| unknown
  6.7s|     1 |     0 |  6996 |     - |   120M |   0 |3785 | 900 | 851 |  29 |  6 |   0 |   0 | 3.280136e+04 | 3.278600e+04 |   0.05%| unknown
  6.8s|     1 |     0 |  7016 |     - |   120M |   0 |3785 | 900 | 855 |  33 |  7 |   0 |   0 | 3.280136e+04 | 3.278600e+04 |   0.05%| unknown
  6.9s|     1 |     0 |  7029 |     - |   120M |   0 |3785 | 900 | 860 |  38 |  8 |   0 |   0 | 3.280136e+04 | 3.278600e+04 |   0.05%| unknown
  7.0s|     1 |     0 |  7035 |     - |   120M |   0 |3785 | 900 | 865 |  43 |  9 |   0 |   0 | 3.280136e+04 | 3.278600e+04 |   0.05%| unknown
  7.1s|     1 |     0 |  7059 |     - |   120M |   0 |3785 | 900 | 870 |  48 | 10 |   0 |   0 | 3.280136e+04 | 3.278600e+04 |   0.05%| unknown
  7.1s|     1 |     0 |  7063 |     - |   121M |   0 |3785 | 900 | 873 |  51 | 11 |   0 |   0 | 3.280136e+04 | 3.278600e+04 |   0.05%| unknown
 10.4s|     1 |     2 |  9199 |     - |   121M |   0 |3785 | 900 | 873 |  51 | 11 |   0 |  26 | 3.280136e+04 | 3.278600e+04 |   0.05%| unknown
 11.5s|   100 |   101 |  9757 |  51.3 |   122M |  99 |3785 | 900 | 790 |  68 |  1 |   0 |  26 | 3.280136e+04 | 3.278600e+04 |   0.05%| unknown
 12.1s|   200 |   201 | 10185 |  27.9 |   124M | 199 |3785 | 900 | 793 |  76 |  1 |   0 |  26 | 3.280136e+04 | 3.278600e+04 |   0.05%| unknown
 time | node  | left  |LP iter|LP it/n|mem/heur|mdpt |vars |cons |rows |cuts |sepa|confs|strbr|  dualbound   | primalbound  |  gap   | compl. 
L13.5s|   201 |   202 | 10187 |  27.8 |crossove| 200 |3785 | 900 | 793 |  76 |  1 |   0 |  26 | 3.280136e+04 | 3.278900e+04 |   0.04%| unknown
 14.2s|   300 |   301 | 10720 |  20.4 |   124M | 299 |3785 | 900 | 793 |  76 |  1 |   0 |  26 | 3.280136e+04 | 3.278900e+04 |   0.04%| unknown
 16.0s|   400 |   401 | 11564 |  17.4 |   124M | 389 |3785 | 900 | 786 |  85 |  2 |   0 | 137 | 3.280136e+04 | 3.278900e+04 |   0.04%| unknown
 18.0s|   500 |   501 | 12075 |  15.0 |   124M | 389 |3785 | 900 | 789 |  93 |  1 |   0 | 137 | 3.280136e+04 | 3.278900e+04 |   0.04%| unknown
r18.4s|   558 |   553 | 12317 |  13.8 |rounding| 389 |3785 | 900 | 793 |  98 |  0 |   0 | 137 | 3.280136e+04 | 3.279000e+04 |   0.03%| unknown
i18.4s|   558 |   555 | 12317 |  13.8 |  oneopt| 389 |3785 | 900 | 793 |  98 |  2 |   0 | 137 | 3.280136e+04 | 3.279100e+04 |   0.03%| unknown
 19.8s|   600 |   597 | 13792 |  15.3 |   127M | 389 |3785 | 900 | 793 |  98 |  1 |   0 | 181 | 3.280136e+04 | 3.279100e+04 |   0.03%| unknown
 20.9s|   700 |   697 | 14552 |  14.2 |   127M | 391 |3785 | 900 | 793 |  98 |  1 |   0 | 246 | 3.280136e+04 | 3.279100e+04 |   0.03%| unknown
 23.8s|   800 |   797 | 14982 |  13.0 |   127M | 391 |3785 | 900 | 793 |  98 |  1 |   0 | 424 | 3.280136e+04 | 3.279100e+04 |   0.03%| unknown
r24.7s|   840 |   835 | 15053 |  12.5 |simplero| 424 |3785 | 900 | 793 |  98 |  0 |   0 | 499 | 3.280136e+04 | 3.279200e+04 |   0.03%| unknown
i24.7s|   840 |   802 | 15053 |  12.5 |  oneopt| 424 |3785 | 900 | 793 |  98 |  1 |   0 | 499 | 3.280136e+04 | 3.279300e+04 |   0.03%| unknown
 25.3s|   900 |   862 | 15650 |  12.3 |   127M | 429 |3785 | 900 | 793 |  98 |  1 |   0 | 519 | 3.280136e+04 | 3.279300e+04 |   0.03%| unknown
 27.2s|  1000 |   960 | 16403 |  11.8 |   127M | 429 |3785 | 900 | 793 |  98 |  1 |   0 | 662 | 3.280136e+04 | 3.279300e+04 |   0.03%| unknown
d29.9s|  1072 |     0 | 17100 |  11.7 |distribu| 437 |3785 | 900 | 793 |   0 |  1 |   0 | 845 | 3.280100e+04 | 3.280100e+04 |   0.00%| 100.00%

SCIP Status        : problem is solved [optimal solution found]
Solving Time (sec) : 29.87
Solving Nodes      : 1072 (total of 1074 nodes in 3 runs)
Primal Bound       : +3.28010000000000e+04 (525 solutions)
Dual Bound         : +3.28010000000000e+04
Gap                : 0.00 %
Solve Status: optimal
Solve Time: 29.88 seconds
